Reading model...
...model read.
creating competitive generators file...
...competitive generators recorded.
Loading data...
.. real-time data read.
Compiling instance...
600.0
50.0
166.08466800000002
13.840389000000002
...instance created.
Creating Offer Mitigation (model will solve as dispatch if TRUE)...
...storage offer mitigation file created
Converting model to MPEC...
...converted
NOTE: initial MIP solve with only storage competitive to get feasible solution
Solving...

Welcome to IBM(R) ILOG(R) CPLEX(R) Interactive Optimizer 12.9.0.0
  with Simplex, Mixed Integer & Barrier Optimizers
5725-A06 5725-A29 5724-Y48 5724-Y49 5724-Y54 5724-Y55 5655-Y21
Copyright IBM Corp. 1988, 2019.  All Rights Reserved.

Type 'help' for a list of available commands.
Type 'help' followed by a command name for more
information on commands.

CPLEX> Logfile 'cplex.log' closed.
Logfile 'C:\Users\llavin\Desktop\test826\logs\tmpcyiddsau.cplex.log' open.
CPLEX> New value for parallel optimization mode: -1
CPLEX> New value for mixed integer optimality gap tolerance: 0.02
CPLEX> New value for emphasis for MIP optimization: 1
CPLEX> New value for integrality tolerance: 1e-12
CPLEX> New value for deterministic time limit in ticks: 50000
CPLEX> Problem 'C:\Users\llavin\Desktop\test826\logs\tmpd_fj1t6i.pyomo.lp' read.
Read time = 0.53 sec. (28.51 ticks)
CPLEX> Problem name         : C:\Users\llavin\Desktop\test826\logs\tmpd_fj1t6i.pyomo.lp
Objective sense      : Maximize
Variables            :  107783  [Nneg: 1,  Box: 44058,  Free: 8928,
                                 Binary: 54796]
Objective nonzeros   :   17427
Linear constraints   :  246901  [Less: 82864,  Greater: 118424,  Equal: 45613]
  Nonzeros           :  618173
  RHS nonzeros       :  134883

Variables            : Min LB: -5000.000        Max UB: 1000000.       
Objective nonzeros   : Min   : 0.01666667       Max   : 208.3333       
Linear constraints   :
  Nonzeros           : Min   : 0.01666667       Max   : 1000000.       
  RHS nonzeros       : Min   : 0.01666667       Max   : 1000000.       
CPLEX> CPXPARAM_Parallel                                -1
CPXPARAM_Emphasis_MIP                            1
CPXPARAM_DetTimeLimit                            50000
CPXPARAM_MIP_Tolerances_MIPGap                   0.02
CPXPARAM_MIP_Tolerances_Integrality              9.9999999999999998e-13
Tried aggregator 3 times.
MIP Presolve eliminated 181793 rows and 41717 columns.
MIP Presolve added 6048 rows and 0 columns.
MIP Presolve modified 51148 coefficients.
Aggregator did 25865 substitutions.
Reduced MIP has 45291 rows, 38569 columns, and 136029 nonzeros.
Reduced MIP has 15189 binaries, 0 generals, 0 SOSs, and 0 indicators.
Presolve time = 0.63 sec. (379.07 ticks)
Probing fixed 791 vars, tightened 9265 bounds.
Probing time = 0.36 sec. (13.95 ticks)
Tried aggregator 2 times.
MIP Presolve eliminated 1776 rows and 1632 columns.
MIP Presolve modified 10512 coefficients.
Aggregator did 86 substitutions.
Reduced MIP has 43429 rows, 36851 columns, and 130587 nonzeros.
Reduced MIP has 14397 binaries, 0 generals, 0 SOSs, and 0 indicators.
Presolve time = 0.23 sec. (206.68 ticks)
Probing fixed 1 vars, tightened 4179 bounds.
Probing time = 0.42 sec. (16.56 ticks)
Clique table members: 69198.
MIP emphasis: integer feasibility.
MIP search method: dynamic search.
Parallel mode: opportunistic, using up to 32 threads.
Root relaxation solution time = 0.98 sec. (1685.97 ticks)

        Nodes                                         Cuts/
   Node  Left     Objective  IInf  Best Integer    Best Bound    ItCnt     Gap

      0     0     1321.4596   657                   1321.4596     6450         
      0     0     1321.4604     1                 Flowcuts: 2     6452         
*     0+    0                         1321.4604     1321.4596            -0.00%
      0     0        cutoff           1321.4604     1321.4596     6452   -0.00%
Elapsed time = 3.84 sec. (3300.30 ticks, tree = 0.01 MB, solutions = 1)

Flow cuts applied:  2

Root node processing (before b&c):
  Real time             =    3.88 sec. (3304.12 ticks)
Parallel b&c, 32 threads:
  Real time             =    0.00 sec. (0.00 ticks)
  Sync time (average)   =    0.00 sec.
  Wait time (average)   =    0.00 sec.
                          ------------
Total (root+branch&cut) =    3.88 sec. (3304.12 ticks)

Solution pool: 1 solution saved.

MIP - Integer optimal solution:  Objective =  1.3214604390e+03
Solution time =    3.92 sec.  Iterations = 6452  Nodes = 0
Deterministic time = 3304.43 ticks  (842.54 ticks/sec)

CPLEX> Incumbent solution written to file 'C:\Users\llavin\Desktop\test826\logs\tmpeia_o1r6.cplex.sol'.
CPLEX> NOTE: no warmstart specified for MIP iteration, default behavior is true
NOTE: resolving with all competitive generators using storage-only solution to warmstart
Solving...

Welcome to IBM(R) ILOG(R) CPLEX(R) Interactive Optimizer 12.9.0.0
  with Simplex, Mixed Integer & Barrier Optimizers
5725-A06 5725-A29 5724-Y48 5724-Y49 5724-Y54 5724-Y55 5655-Y21
Copyright IBM Corp. 1988, 2019.  All Rights Reserved.

Type 'help' for a list of available commands.
Type 'help' followed by a command name for more
information on commands.

CPLEX> Logfile 'cplex.log' closed.
Logfile 'C:\Users\llavin\Desktop\test826\logs\tmp0osn4ku9.cplex.log' open.
CPLEX> New value for parallel optimization mode: -1
CPLEX> New value for mixed integer optimality gap tolerance: 0.02
CPLEX> New value for emphasis for MIP optimization: 1
CPLEX> New value for integrality tolerance: 1e-12
CPLEX> New value for deterministic time limit in ticks: 50000
CPLEX> Problem 'C:\Users\llavin\Desktop\test826\logs\tmpz_vr6ulz.pyomo.lp' read.
Read time = 0.53 sec. (28.56 ticks)
CPLEX> MIP start file 'C:\Users\llavin\Desktop\test826\logs\tmpn57f2gre.cplex.mst' read.
CPLEX> Problem name         : C:\Users\llavin\Desktop\test826\logs\tmpz_vr6ulz.pyomo.lp
Objective sense      : Maximize
Variables            :  109223  [Nneg: 1,  Box: 45498,  Free: 8928,
                                 Binary: 54796]
Objective nonzeros   :   18819
Linear constraints   :  246901  [Less: 82864,  Greater: 118424,  Equal: 45613]
  Nonzeros           :  618173
  RHS nonzeros       :  134883

Variables            : Min LB: -5000.000        Max UB: 1000000.       
Objective nonzeros   : Min   : 0.01666667       Max   : 208.3333       
Linear constraints   :
  Nonzeros           : Min   : 0.01666667       Max   : 1000000.       
  RHS nonzeros       : Min   : 0.01666667       Max   : 1000000.       
CPLEX> CPXPARAM_Parallel                                -1
CPXPARAM_Emphasis_MIP                            1
CPXPARAM_DetTimeLimit                            50000
CPXPARAM_MIP_Tolerances_MIPGap                   0.02
CPXPARAM_MIP_Tolerances_Integrality              9.9999999999999998e-13
Warning:  No solution found from 1 MIP starts.
Retaining values of one MIP start for possible repair.
Tried aggregator 3 times.
MIP Presolve eliminated 181793 rows and 43157 columns.
MIP Presolve added 6048 rows and 0 columns.
MIP Presolve modified 51148 coefficients.
Aggregator did 25865 substitutions.
Reduced MIP has 45291 rows, 38569 columns, and 136029 nonzeros.
Reduced MIP has 15189 binaries, 0 generals, 0 SOSs, and 0 indicators.
Presolve time = 0.63 sec. (379.78 ticks)
Probing fixed 791 vars, tightened 9265 bounds.
Probing time = 0.34 sec. (13.95 ticks)
Tried aggregator 2 times.
MIP Presolve eliminated 1776 rows and 1632 columns.
MIP Presolve modified 10512 coefficients.
Aggregator did 86 substitutions.
Reduced MIP has 43429 rows, 36851 columns, and 130587 nonzeros.
Reduced MIP has 14397 binaries, 0 generals, 0 SOSs, and 0 indicators.
Presolve time = 0.23 sec. (206.40 ticks)
Probing fixed 1 vars, tightened 4179 bounds.
Probing time = 0.41 sec. (16.56 ticks)
Clique table members: 69198.
MIP emphasis: integer feasibility.
MIP search method: dynamic search.
Parallel mode: opportunistic, using up to 32 threads.
Root relaxation solution time = 1.39 sec. (2171.56 ticks)

        Nodes                                         Cuts/
   Node  Left     Objective  IInf  Best Integer    Best Bound    ItCnt     Gap

      0     0    33487.2528   803                  33487.2528    12231         
      0     0    33486.8816   154                   Cuts: 184    12325         
      0     0    33486.2148   158                   Cuts: 106    12384         
      0     0    33486.2148   161                    Cuts: 58    12397         
Repair heuristic found nothing.
      0     8    33482.6715   164                 Impl Bds: 3    12425         
Elapsed time = 8.91 sec. (5270.10 ticks, tree = 0.02 MB, solutions = 0)
    563   569    33469.1632   150                  33482.9839    13748         
   1252   536    33462.9742   131                  33482.9839    13689         
   1985  1068    33463.7477   111                  33482.9839    14633         
   2469  1750    33452.8894   100                  33482.9839    16196         
   2829  2120    33447.1696    83                  33482.9839    17479         
   3260  3153    33430.6512    92                  33482.9839    23718         
   3692  3109    33435.4493    63                  33482.9839    23456         
   4131  2969    33412.6426    24                  33482.9839    22637         
   4564  3404    33419.4086    24                  33482.9839    25152         
*  5467  4519      integral     0    33358.9299    33482.9839    34798    0.37%
   5879  4789    33431.4049   111    33358.9299    33482.9839    37670    0.37%
Elapsed time = 25.86 sec. (8374.03 ticks, tree = 62.63 MB, solutions = 4)

Cover cuts applied:  1
Implied bound cuts applied:  5
Flow cuts applied:  211

Root node processing (before b&c):
  Real time             =    6.66 sec. (5238.05 ticks)
Parallel b&c, 32 threads:
  Real time             =   19.67 sec. (3247.51 ticks)
  Sync time (average)   =    1.02 sec.
  Wait time (average)   =    0.00 sec.
                          ------------
Total (root+branch&cut) =   26.33 sec. (8485.56 ticks)

Solution pool: 5 solutions saved.

MIP - Integer optimal, tolerance (0.02/1e-06):  Objective =  3.3358929851e+04
Current MIP best bound =  3.3482983906e+04 (gap = 124.054, 0.37%)
Solution time =   26.34 sec.  Iterations = 49425  Nodes = 5904 (5200)
Deterministic time = 8485.87 ticks  (322.13 ticks/sec)

CPLEX> Incumbent solution written to file 'C:\Users\llavin\Desktop\test826\logs\tmp5z3vjwqp.cplex.sol'.
CPLEX> Exporting results... 
